p cnf 915 2389
c uncontrollable inputs:
a 13 14 16 18 20 21 22 23 24 25 26 27 0
c state variables:
a 28 29 30 31 32 33 34 35 36 37 38 39 40 41 42 43 44 45 46 47 48 49 50 51 52 53 54 55 56 57 58 59 60 61 62 63 64 65 66 67 68 69 70 71 72 0
c next state variables:
a 73 74 75 76 77 78 79 80 81 82 83 84 85 86 87 88 89 90 91 92 93 94 95 96 97 98 99 100 101 102 103 104 105 106 107 108 109 110 111 112 113 114 115 116 117 0
c controllable inputs
d 1 13 14 16 18 20 21 22 23 24 25 26 27 28 29 30 31 32 33 34 35 36 37 38 39 40 41 42 43 44 45 46 47 48 49 50 51 52 53 54 55 56 57 58 59 60 61 62 63 64 65 66 67 68 69 70 71 72 0
d 2 13 14 16 18 20 21 22 23 24 25 26 27 28 29 30 31 32 33 34 35 36 37 38 39 40 41 42 43 44 45 46 47 48 49 50 51 52 53 54 55 56 57 58 59 60 61 62 63 64 65 66 67 68 69 70 71 72 0
d 3 13 14 16 18 20 21 22 23 24 25 26 27 28 29 30 31 32 33 34 35 36 37 38 39 40 41 42 43 44 45 46 47 48 49 50 51 52 53 54 55 56 57 58 59 60 61 62 63 64 65 66 67 68 69 70 71 72 0
d 4 13 14 16 18 20 21 22 23 24 25 26 27 28 29 30 31 32 33 34 35 36 37 38 39 40 41 42 43 44 45 46 47 48 49 50 51 52 53 54 55 56 57 58 59 60 61 62 63 64 65 66 67 68 69 70 71 72 0
d 5 13 14 16 18 20 21 22 23 24 25 26 27 28 29 30 31 32 33 34 35 36 37 38 39 40 41 42 43 44 45 46 47 48 49 50 51 52 53 54 55 56 57 58 59 60 61 62 63 64 65 66 67 68 69 70 71 72 0
d 6 13 14 16 18 20 21 22 23 24 25 26 27 28 29 30 31 32 33 34 35 36 37 38 39 40 41 42 43 44 45 46 47 48 49 50 51 52 53 54 55 56 57 58 59 60 61 62 63 64 65 66 67 68 69 70 71 72 0
d 7 13 14 16 18 20 21 22 23 24 25 26 27 28 29 30 31 32 33 34 35 36 37 38 39 40 41 42 43 44 45 46 47 48 49 50 51 52 53 54 55 56 57 58 59 60 61 62 63 64 65 66 67 68 69 70 71 72 0
d 8 13 14 16 18 20 21 22 23 24 25 26 27 28 29 30 31 32 33 34 35 36 37 38 39 40 41 42 43 44 45 46 47 48 49 50 51 52 53 54 55 56 57 58 59 60 61 62 63 64 65 66 67 68 69 70 71 72 0
d 9 13 14 16 18 20 21 22 23 24 25 26 27 28 29 30 31 32 33 34 35 36 37 38 39 40 41 42 43 44 45 46 47 48 49 50 51 52 53 54 55 56 57 58 59 60 61 62 63 64 65 66 67 68 69 70 71 72 0
d 10 13 14 16 18 20 21 22 23 24 25 26 27 28 29 30 31 32 33 34 35 36 37 38 39 40 41 42 43 44 45 46 47 48 49 50 51 52 53 54 55 56 57 58 59 60 61 62 63 64 65 66 67 68 69 70 71 72 0
d 11 13 14 16 18 20 21 22 23 24 25 26 27 28 29 30 31 32 33 34 35 36 37 38 39 40 41 42 43 44 45 46 47 48 49 50 51 52 53 54 55 56 57 58 59 60 61 62 63 64 65 66 67 68 69 70 71 72 0
d 12 13 14 16 18 20 21 22 23 24 25 26 27 28 29 30 31 32 33 34 35 36 37 38 39 40 41 42 43 44 45 46 47 48 49 50 51 52 53 54 55 56 57 58 59 60 61 62 63 64 65 66 67 68 69 70 71 72 0
d 15 13 14 16 18 20 21 22 23 24 25 26 27 28 29 30 31 32 33 34 35 36 37 38 39 40 41 42 43 44 45 46 47 48 49 50 51 52 53 54 55 56 57 58 59 60 61 62 63 64 65 66 67 68 69 70 71 72 0
d 17 13 14 16 18 20 21 22 23 24 25 26 27 28 29 30 31 32 33 34 35 36 37 38 39 40 41 42 43 44 45 46 47 48 49 50 51 52 53 54 55 56 57 58 59 60 61 62 63 64 65 66 67 68 69 70 71 72 0
d 19 13 14 16 18 20 21 22 23 24 25 26 27 28 29 30 31 32 33 34 35 36 37 38 39 40 41 42 43 44 45 46 47 48 49 50 51 52 53 54 55 56 57 58 59 60 61 62 63 64 65 66 67 68 69 70 71 72 0
c winning region (state)
d 118 28 29 30 31 32 33 34 35 36 37 38 39 40 41 42 43 44 45 46 47 48 49 50 51 52 53 54 55 56 57 58 59 60 61 62 63 64 65 66 67 68 69 70 71 72 0
c winning region (next state)
d 119 73 74 75 76 77 78 79 80 81 82 83 84 85 86 87 88 89 90 91 92 93 94 95 96 97 98 99 100 101 102 103 104 105 106 107 108 109 110 111 112 113 114 115 116 117 0
c tseitin variables
e 120 121 122 123 124 125 126 127 128 129 130 131 132 133 134 135 136 137 138 139 140 141 142 143 144 145 146 147 148 149 150 151 152 153 154 155 156 157 158 159 160 161 162 163 164 165 166 167 168 169 170 171 172 173 174 175 176 177 178 179 180 181 182 183 184 185 186 187 188 189 190 191 192 193 194 195 196 197 198 199 200 201 202 203 204 205 206 207 208 209 210 211 212 213 214 215 216 217 218 219 220 221 222 223 224 225 226 227 228 229 230 231 232 233 234 235 236 237 238 239 240 241 242 243 244 245 246 247 248 249 250 251 252 253 254 255 256 257 258 259 260 261 262 263 264 265 266 267 268 269 270 271 272 273 274 275 276 277 278 279 280 281 282 283 284 285 286 287 288 289 290 291 292 293 294 295 296 297 298 299 300 301 302 303 304 305 306 307 308 309 310 311 312 313 314 315 316 317 318 319 320 321 322 323 324 325 326 327 328 329 330 331 332 333 334 335 336 337 338 339 340 341 342 343 344 345 346 347 348 349 350 351 352 353 354 355 356 357 358 359 360 361 362 363 364 365 366 367 368 369 370 371 372 373 374 375 376 377 378 379 380 381 382 383 384 385 386 387 388 389 390 391 392 393 394 395 396 397 398 399 400 401 402 403 404 405 406 407 408 409 410 411 412 413 414 415 416 417 418 419 420 421 422 423 424 425 426 427 428 429 430 431 432 433 434 435 436 437 438 439 440 441 442 443 444 445 446 447 448 449 450 451 452 453 454 455 456 457 458 459 460 461 462 463 464 465 466 467 468 469 470 471 472 473 474 475 476 477 478 479 480 481 482 483 484 485 486 487 488 489 490 491 492 493 494 495 496 497 498 499 500 501 502 503 504 505 506 507 508 509 510 511 512 513 514 515 516 517 518 519 520 521 522 523 524 525 526 527 528 529 530 531 532 533 534 535 536 537 538 539 540 541 542 543 544 545 546 547 548 549 550 551 552 553 554 555 556 557 558 559 560 561 562 563 564 565 566 567 568 569 570 571 572 573 574 575 576 577 578 579 580 581 582 583 584 585 586 587 588 589 590 591 592 593 594 595 596 597 598 599 600 601 602 603 604 605 606 607 608 609 610 611 612 613 614 615 616 617 618 619 620 621 622 623 624 625 626 627 628 629 630 631 632 633 634 635 636 637 638 639 640 641 642 643 644 645 646 647 648 649 650 651 652 653 654 655 656 657 658 659 660 661 662 663 664 665 666 667 668 669 670 671 672 673 674 675 676 677 678 679 680 681 682 683 684 685 686 687 688 689 690 691 692 693 694 695 696 697 698 699 700 701 702 703 704 705 706 707 708 709 710 711 712 713 714 715 716 717 718 719 720 721 722 723 724 725 726 727 728 729 730 731 732 733 734 735 736 737 738 739 740 741 742 743 744 745 746 747 748 749 750 751 752 753 754 755 756 757 758 759 760 761 762 763 764 765 766 767 768 769 770 771 772 773 774 775 776 777 778 779 780 781 782 783 784 785 786 787 788 789 790 791 792 793 794 795 796 797 798 799 800 801 802 803 804 805 806 807 808 809 810 811 812 813 814 815 816 817 818 819 820 821 822 823 824 825 826 827 828 829 830 831 832 833 834 835 836 837 838 839 840 841 842 843 844 845 846 847 848 849 850 851 852 853 854 855 856 857 858 859 860 861 862 863 864 865 866 867 868 869 870 871 872 873 874 875 876 877 878 879 880 881 882 883 884 885 886 887 888 889 890 891 892 893 894 895 896 897 898 899 900 901 902 903 904 905 906 907 908 909 910 911 912 913 914 915 0
c clauses:
-120 -105 0
-120 60 0
120 105 -60 0
-121 105 0
-121 -60 0
121 -105 60 0
-122 -120 0
-122 -121 0
122 120 121 0
-123 -106 0
-123 61 0
123 106 -61 0
-124 106 0
-124 -61 0
124 -106 61 0
-125 -123 0
-125 -124 0
125 123 124 0
-126 122 0
-126 125 0
126 -122 -125 0
-127 -107 0
-127 62 0
127 107 -62 0
-128 107 0
-128 -62 0
128 -107 62 0
-129 -127 0
-129 -128 0
129 127 128 0
-130 -108 0
-130 63 0
130 108 -63 0
-131 108 0
-131 -63 0
131 -108 63 0
-132 -130 0
-132 -131 0
132 130 131 0
-133 129 0
-133 132 0
133 -129 -132 0
-134 126 0
-134 133 0
134 -126 -133 0
-135 -109 0
-135 64 0
135 109 -64 0
-136 109 0
-136 -64 0
136 -109 64 0
-137 -135 0
-137 -136 0
137 135 136 0
-138 -110 0
-138 65 0
138 110 -65 0
-139 110 0
-139 -65 0
139 -110 65 0
-140 -138 0
-140 -139 0
140 138 139 0
-141 137 0
-141 140 0
141 -137 -140 0
-142 -111 0
-142 66 0
142 111 -66 0
-143 111 0
-143 -66 0
143 -111 66 0
-144 -142 0
-144 -143 0
144 142 143 0
-145 -112 0
-145 67 0
145 112 -67 0
-146 112 0
-146 -67 0
146 -112 67 0
-147 -145 0
-147 -146 0
147 145 146 0
-148 144 0
-148 147 0
148 -144 -147 0
-149 141 0
-149 148 0
149 -141 -148 0
-150 134 0
-150 149 0
150 -134 -149 0
-151 -117 0
-151 72 0
151 117 -72 0
-152 117 0
-152 -72 0
152 -117 72 0
-153 -151 0
-153 -152 0
153 151 152 0
-154 -113 0
-154 68 0
154 113 -68 0
-155 113 0
-155 -68 0
155 -113 68 0
-156 -154 0
-156 -155 0
156 154 155 0
-157 -114 0
-157 69 0
157 114 -69 0
-158 114 0
-158 -69 0
158 -114 69 0
-159 -157 0
-159 -158 0
159 157 158 0
-160 156 0
-160 159 0
160 -156 -159 0
-161 -115 0
-161 70 0
161 115 -70 0
-162 115 0
-162 -70 0
162 -115 70 0
-163 -161 0
-163 -162 0
163 161 162 0
-164 -116 0
-164 71 0
164 116 -71 0
-165 116 0
-165 -71 0
165 -116 71 0
-166 -164 0
-166 -165 0
166 164 165 0
-167 163 0
-167 166 0
167 -163 -166 0
-168 160 0
-168 167 0
168 -160 -167 0
-169 153 0
-169 168 0
169 -153 -168 0
-170 150 0
-170 169 0
170 -150 -169 0
-171 -73 0
-171 28 0
171 73 -28 0
-172 73 0
-172 -28 0
172 -73 28 0
-173 -171 0
-173 -172 0
173 171 172 0
-174 -74 0
-174 29 0
174 74 -29 0
-175 74 0
-175 -29 0
175 -74 29 0
-176 -174 0
-176 -175 0
176 174 175 0
-177 173 0
-177 176 0
177 -173 -176 0
-178 -75 0
-178 30 0
178 75 -30 0
-179 75 0
-179 -30 0
179 -75 30 0
-180 -178 0
-180 -179 0
180 178 179 0
-181 -76 0
-181 31 0
181 76 -31 0
-182 76 0
-182 -31 0
182 -76 31 0
-183 -181 0
-183 -182 0
183 181 182 0
-184 180 0
-184 183 0
184 -180 -183 0
-185 177 0
-185 184 0
185 -177 -184 0
-186 -77 0
-186 32 0
186 77 -32 0
-187 77 0
-187 -32 0
187 -77 32 0
-188 -186 0
-188 -187 0
188 186 187 0
-189 -78 0
-189 33 0
189 78 -33 0
-190 78 0
-190 -33 0
190 -78 33 0
-191 -189 0
-191 -190 0
191 189 190 0
-192 188 0
-192 191 0
192 -188 -191 0
-193 -79 0
-193 34 0
193 79 -34 0
-194 79 0
-194 -34 0
194 -79 34 0
-195 -193 0
-195 -194 0
195 193 194 0
-196 -80 0
-196 35 0
196 80 -35 0
-197 80 0
-197 -35 0
197 -80 35 0
-198 -196 0
-198 -197 0
198 196 197 0
-199 195 0
-199 198 0
199 -195 -198 0
-200 192 0
-200 199 0
200 -192 -199 0
-201 185 0
-201 200 0
201 -185 -200 0
-202 -81 0
-202 36 0
202 81 -36 0
-203 81 0
-203 -36 0
203 -81 36 0
-204 -202 0
-204 -203 0
204 202 203 0
-205 -82 0
-205 37 0
205 82 -37 0
-206 82 0
-206 -37 0
206 -82 37 0
-207 -205 0
-207 -206 0
207 205 206 0
-208 204 0
-208 207 0
208 -204 -207 0
-209 -83 0
-209 38 0
209 83 -38 0
-210 83 0
-210 -38 0
210 -83 38 0
-211 -209 0
-211 -210 0
211 209 210 0
-212 -84 0
-212 39 0
212 84 -39 0
-213 84 0
-213 -39 0
213 -84 39 0
-214 -212 0
-214 -213 0
214 212 213 0
-215 211 0
-215 214 0
215 -211 -214 0
-216 208 0
-216 215 0
216 -208 -215 0
-217 -85 0
-217 40 0
217 85 -40 0
-218 85 0
-218 -40 0
218 -85 40 0
-219 -217 0
-219 -218 0
219 217 218 0
-220 -86 0
-220 41 0
220 86 -41 0
-221 86 0
-221 -41 0
221 -86 41 0
-222 -220 0
-222 -221 0
222 220 221 0
-223 219 0
-223 222 0
223 -219 -222 0
-224 -87 0
-224 42 0
224 87 -42 0
-225 87 0
-225 -42 0
225 -87 42 0
-226 -224 0
-226 -225 0
226 224 225 0
-227 -88 0
-227 43 0
227 88 -43 0
-228 88 0
-228 -43 0
228 -88 43 0
-229 -227 0
-229 -228 0
229 227 228 0
-230 226 0
-230 229 0
230 -226 -229 0
-231 223 0
-231 230 0
231 -223 -230 0
-232 216 0
-232 231 0
232 -216 -231 0
-233 201 0
-233 232 0
233 -201 -232 0
-234 -89 0
-234 44 0
234 89 -44 0
-235 89 0
-235 -44 0
235 -89 44 0
-236 -234 0
-236 -235 0
236 234 235 0
-237 -90 0
-237 45 0
237 90 -45 0
-238 90 0
-238 -45 0
238 -90 45 0
-239 -237 0
-239 -238 0
239 237 238 0
-240 236 0
-240 239 0
240 -236 -239 0
-241 -91 0
-241 46 0
241 91 -46 0
-242 91 0
-242 -46 0
242 -91 46 0
-243 -241 0
-243 -242 0
243 241 242 0
-244 -92 0
-244 47 0
244 92 -47 0
-245 92 0
-245 -47 0
245 -92 47 0
-246 -244 0
-246 -245 0
246 244 245 0
-247 243 0
-247 246 0
247 -243 -246 0
-248 240 0
-248 247 0
248 -240 -247 0
-249 -93 0
-249 48 0
249 93 -48 0
-250 93 0
-250 -48 0
250 -93 48 0
-251 -249 0
-251 -250 0
251 249 250 0
-252 -94 0
-252 49 0
252 94 -49 0
-253 94 0
-253 -49 0
253 -94 49 0
-254 -252 0
-254 -253 0
254 252 253 0
-255 251 0
-255 254 0
255 -251 -254 0
-256 -95 0
-256 50 0
256 95 -50 0
-257 95 0
-257 -50 0
257 -95 50 0
-258 -256 0
-258 -257 0
258 256 257 0
-259 -96 0
-259 51 0
259 96 -51 0
-260 96 0
-260 -51 0
260 -96 51 0
-261 -259 0
-261 -260 0
261 259 260 0
-262 258 0
-262 261 0
262 -258 -261 0
-263 255 0
-263 262 0
263 -255 -262 0
-264 248 0
-264 263 0
264 -248 -263 0
-265 -97 0
-265 52 0
265 97 -52 0
-266 97 0
-266 -52 0
266 -97 52 0
-267 -265 0
-267 -266 0
267 265 266 0
-268 -98 0
-268 53 0
268 98 -53 0
-269 98 0
-269 -53 0
269 -98 53 0
-270 -268 0
-270 -269 0
270 268 269 0
-271 267 0
-271 270 0
271 -267 -270 0
-272 -99 0
-272 54 0
272 99 -54 0
-273 99 0
-273 -54 0
273 -99 54 0
-274 -272 0
-274 -273 0
274 272 273 0
-275 -100 0
-275 55 0
275 100 -55 0
-276 100 0
-276 -55 0
276 -100 55 0
-277 -275 0
-277 -276 0
277 275 276 0
-278 274 0
-278 277 0
278 -274 -277 0
-279 271 0
-279 278 0
279 -271 -278 0
-280 -101 0
-280 56 0
280 101 -56 0
-281 101 0
-281 -56 0
281 -101 56 0
-282 -280 0
-282 -281 0
282 280 281 0
-283 -102 0
-283 57 0
283 102 -57 0
-284 102 0
-284 -57 0
284 -102 57 0
-285 -283 0
-285 -284 0
285 283 284 0
-286 282 0
-286 285 0
286 -282 -285 0
-287 -103 0
-287 58 0
287 103 -58 0
-288 103 0
-288 -58 0
288 -103 58 0
-289 -287 0
-289 -288 0
289 287 288 0
-290 -104 0
-290 59 0
290 104 -59 0
-291 104 0
-291 -59 0
291 -104 59 0
-292 -290 0
-292 -291 0
292 290 291 0
-293 289 0
-293 292 0
293 -289 -292 0
-294 286 0
-294 293 0
294 -286 -293 0
-295 279 0
-295 294 0
295 -279 -294 0
-296 264 0
-296 295 0
296 -264 -295 0
-297 233 0
-297 296 0
297 -233 -296 0
-298 170 0
-298 297 0
298 -170 -297 0
-299 119 0
-299 -118 0
299 -119 118 0
-300 -119 0
-300 118 0
300 119 -118 0
-301 -299 0
-301 -300 0
301 299 300 0
-302 298 0
-302 -301 0
302 -298 301 0
-303 58 0
-303 28 0
303 -58 -28 0
-304 -33 0
-304 303 0
304 33 -303 0
-305 63 0
-305 28 0
305 -63 -28 0
-306 26 0
-306 -12 0
306 -26 12 0
-307 -26 0
-307 12 0
307 26 -12 0
-308 -306 0
-308 -307 0
308 306 307 0
-309 -305 0
-309 -308 0
309 305 308 0
-310 42 0
-310 28 0
310 -42 -28 0
-311 24 0
-311 -10 0
311 -24 10 0
-312 -24 0
-312 10 0
312 24 -10 0
-313 -311 0
-313 -312 0
313 311 312 0
-314 -310 0
-314 -313 0
314 310 313 0
-315 59 0
-315 28 0
315 -59 -28 0
-316 21 0
-316 -7 0
316 -21 7 0
-317 -21 0
-317 7 0
317 21 -7 0
-318 -316 0
-318 -317 0
318 316 317 0
-319 -315 0
-319 -318 0
319 315 318 0
-320 38 0
-320 28 0
320 -38 -28 0
-321 20 0
-321 -6 0
321 -20 6 0
-322 -20 0
-322 6 0
322 20 -6 0
-323 -321 0
-323 -322 0
323 321 322 0
-324 -320 0
-324 -323 0
324 320 323 0
-325 69 0
-325 28 0
325 -69 -28 0
-326 18 0
-326 -5 0
326 -18 5 0
-327 -18 0
-327 5 0
327 18 -5 0
-328 -326 0
-328 -327 0
328 326 327 0
-329 -325 0
-329 -328 0
329 325 328 0
-330 48 0
-330 28 0
330 -48 -28 0
-331 16 0
-331 -4 0
331 -16 4 0
-332 -16 0
-332 4 0
332 16 -4 0
-333 -331 0
-333 -332 0
333 331 332 0
-334 -330 0
-334 -333 0
334 330 333 0
-335 36 0
-335 28 0
335 -36 -28 0
-336 14 0
-336 -3 0
336 -14 3 0
-337 -14 0
-337 3 0
337 14 -3 0
-338 -336 0
-338 -337 0
338 336 337 0
-339 -335 0
-339 -338 0
339 335 338 0
-340 -334 0
-340 -339 0
340 334 339 0
-341 -329 0
-341 340 0
341 329 -340 0
-342 -324 0
-342 341 0
342 324 -341 0
-343 -319 0
-343 342 0
343 319 -342 0
-344 23 0
-344 -8 0
344 -23 8 0
-345 -23 0
-345 8 0
345 23 -8 0
-346 -344 0
-346 -345 0
346 344 345 0
-347 29 0
-347 28 0
347 -29 -28 0
-348 -346 0
-348 -347 0
348 346 347 0
-349 343 0
-349 -348 0
349 -343 348 0
-350 -314 0
-350 349 0
350 314 -349 0
-351 -309 0
-351 350 0
351 309 -350 0
-352 -304 0
-352 351 0
352 304 -351 0
-353 33 0
-353 28 0
353 -33 -28 0
-354 -353 0
-354 -303 0
354 353 303 0
-355 -305 0
-355 308 0
355 305 -308 0
-356 -310 0
-356 313 0
356 310 -313 0
-357 346 0
-357 -347 0
357 -346 347 0
-358 -315 0
-358 318 0
358 315 -318 0
-359 -320 0
-359 323 0
359 320 -323 0
-360 -325 0
-360 328 0
360 325 -328 0
-361 -330 0
-361 333 0
361 330 -333 0
-362 -335 0
-362 338 0
362 335 -338 0
-363 -361 0
-363 -362 0
363 361 362 0
-364 -360 0
-364 363 0
364 360 -363 0
-365 -359 0
-365 364 0
365 359 -364 0
-366 -358 0
-366 365 0
366 358 -365 0
-367 -357 0
-367 366 0
367 357 -366 0
-368 -356 0
-368 367 0
368 356 -367 0
-369 -355 0
-369 368 0
369 355 -368 0
-370 -354 0
-370 369 0
370 354 -369 0
-371 -352 0
-371 370 0
371 352 -370 0
-372 60 0
-372 28 0
372 -60 -28 0
-373 52 0
-373 28 0
373 -52 -28 0
-374 -27 0
-374 9 0
374 27 -9 0
-375 27 0
-375 -9 0
375 -27 9 0
-376 -374 0
-376 -375 0
376 374 375 0
-377 -373 0
-377 -376 0
377 373 376 0
-378 34 0
-378 28 0
378 -34 -28 0
-379 -25 0
-379 11 0
379 25 -11 0
-380 25 0
-380 -11 0
380 -25 11 0
-381 -379 0
-381 -380 0
381 379 380 0
-382 -378 0
-382 -381 0
382 378 381 0
-383 -377 0
-383 -382 0
383 377 382 0
-384 372 0
-384 383 0
384 -372 -383 0
-385 -372 0
-385 -383 0
385 372 383 0
-386 -384 0
-386 -385 0
386 384 385 0
-387 371 0
-387 386 0
387 -371 -386 0
-388 -105 0
-388 387 0
388 105 -387 0
-389 105 0
-389 -387 0
389 -105 387 0
-390 -388 0
-390 -389 0
390 388 389 0
-391 61 0
-391 28 0
391 -61 -28 0
-392 -391 0
-392 384 0
392 391 -384 0
-393 391 0
-393 -384 0
393 -391 384 0
-394 -392 0
-394 -393 0
394 392 393 0
-395 -394 0
-395 371 0
395 394 -371 0
-396 -106 0
-396 395 0
396 106 -395 0
-397 106 0
-397 -395 0
397 -106 395 0
-398 -396 0
-398 -397 0
398 396 397 0
-399 390 0
-399 398 0
399 -390 -398 0
-400 -107 0
-400 1 0
400 107 -1 0
-401 107 0
-401 -1 0
401 -107 1 0
-402 -400 0
-402 -401 0
402 400 401 0
-403 -309 0
-403 -352 0
403 309 352 0
-404 -108 0
-404 403 0
404 108 -403 0
-405 108 0
-405 -403 0
405 -108 403 0
-406 -404 0
-406 -405 0
406 404 405 0
-407 402 0
-407 406 0
407 -402 -406 0
-408 399 0
-408 407 0
408 -399 -407 0
-409 -109 0
-409 10 0
409 109 -10 0
-410 109 0
-410 -10 0
410 -109 10 0
-411 -409 0
-411 -410 0
411 409 410 0
-412 -110 0
-412 18 0
412 110 -18 0
-413 110 0
-413 -18 0
413 -110 18 0
-414 -412 0
-414 -413 0
414 412 413 0
-415 411 0
-415 414 0
415 -411 -414 0
-416 -111 0
-416 12 0
416 111 -12 0
-417 111 0
-417 -12 0
417 -111 12 0
-418 -416 0
-418 -417 0
418 416 417 0
-419 67 0
-419 28 0
419 -67 -28 0
-420 37 0
-420 28 0
420 -37 -28 0
-421 -13 0
-421 420 0
421 13 -420 0
-422 13 0
-422 -420 0
422 -13 420 0
-423 -421 0
-423 -422 0
423 421 422 0
-424 54 0
-424 28 0
424 -54 -28 0
-425 -22 0
-425 424 0
425 22 -424 0
-426 22 0
-426 -424 0
426 -22 424 0
-427 -425 0
-427 -426 0
427 425 426 0
-428 423 0
-428 427 0
428 -423 -427 0
-429 62 0
-429 28 0
429 -62 -28 0
-430 -50 0
-430 429 0
430 50 -429 0
-431 50 0
-431 28 0
431 -50 -28 0
-432 -62 0
-432 431 0
432 62 -431 0
-433 -430 0
-433 -432 0
433 430 432 0
-434 -428 0
-434 433 0
434 428 -433 0
-435 22 0
-435 430 0
435 -22 -430 0
-436 -13 0
-436 432 0
436 13 -432 0
-437 32 0
-437 28 0
437 -32 -28 0
-438 -25 0
-438 437 0
438 25 -437 0
-439 31 0
-439 28 0
439 -31 -28 0
-440 438 0
-440 439 0
440 -438 -439 0
-441 25 0
-441 -439 0
441 -25 439 0
-442 72 0
-442 28 0
442 -72 -28 0
-443 -27 0
-443 442 0
443 27 -442 0
-444 70 0
-444 28 0
444 -70 -28 0
-445 443 0
-445 444 0
445 -443 -444 0
-446 27 0
-446 -444 0
446 -27 444 0
-447 66 0
-447 28 0
447 -66 -28 0
-448 26 0
-448 447 0
448 -26 -447 0
-449 40 0
-449 28 0
449 -40 -28 0
-450 -66 0
-450 449 0
450 66 -449 0
-451 -26 0
-451 450 0
451 26 -450 0
-452 64 0
-452 28 0
452 -64 -28 0
-453 24 0
-453 452 0
453 -24 -452 0
-454 44 0
-454 28 0
454 -44 -28 0
-455 -64 0
-455 454 0
455 64 -454 0
-456 -24 0
-456 455 0
456 24 -455 0
-457 56 0
-457 28 0
457 -56 -28 0
-458 23 0
-458 457 0
458 -23 -457 0
-459 47 0
-459 28 0
459 -47 -28 0
-460 -56 0
-460 459 0
460 56 -459 0
-461 -23 0
-461 460 0
461 23 -460 0
-462 51 0
-462 28 0
462 -51 -28 0
-463 21 0
-463 462 0
463 -21 -462 0
-464 53 0
-464 28 0
464 -53 -28 0
-465 -51 0
-465 464 0
465 51 -464 0
-466 -21 0
-466 465 0
466 21 -465 0
-467 46 0
-467 28 0
467 -46 -28 0
-468 20 0
-468 467 0
468 -20 -467 0
-469 43 0
-469 28 0
469 -43 -28 0
-470 -18 0
-470 469 0
470 18 -469 0
-471 65 0
-471 28 0
471 -65 -28 0
-472 -18 0
-472 471 0
472 18 -471 0
-473 -469 0
-473 -472 0
473 469 472 0
-474 -470 0
-474 -473 0
474 470 473 0
-475 39 0
-475 28 0
475 -39 -28 0
-476 -16 0
-476 475 0
476 16 -475 0
-477 68 0
-477 28 0
477 -68 -28 0
-478 -16 0
-478 477 0
478 16 -477 0
-479 -475 0
-479 -478 0
479 475 478 0
-480 -476 0
-480 -479 0
480 476 479 0
-481 35 0
-481 28 0
481 -35 -28 0
-482 -14 0
-482 481 0
482 14 -481 0
-483 71 0
-483 28 0
483 -71 -28 0
-484 -14 0
-484 483 0
484 14 -483 0
-485 -481 0
-485 -484 0
485 481 484 0
-486 -482 0
-486 -485 0
486 482 485 0
-487 -480 0
-487 -486 0
487 480 486 0
-488 -474 0
-488 487 0
488 474 -487 0
-489 57 0
-489 28 0
489 -57 -28 0
-490 -46 0
-490 489 0
490 46 -489 0
-491 -20 0
-491 490 0
491 20 -490 0
-492 488 0
-492 -491 0
492 -488 491 0
-493 -468 0
-493 492 0
493 468 -492 0
-494 -466 0
-494 493 0
494 466 -493 0
-495 -463 0
-495 494 0
495 463 -494 0
-496 -461 0
-496 495 0
496 461 -495 0
-497 -458 0
-497 496 0
497 458 -496 0
-498 -456 0
-498 497 0
498 456 -497 0
-499 -453 0
-499 498 0
499 453 -498 0
-500 -451 0
-500 499 0
500 451 -499 0
-501 -448 0
-501 500 0
501 448 -500 0
-502 -446 0
-502 501 0
502 446 -501 0
-503 -445 0
-503 502 0
503 445 -502 0
-504 -441 0
-504 503 0
504 441 -503 0
-505 -440 0
-505 504 0
505 440 -504 0
-506 -436 0
-506 505 0
506 436 -505 0
-507 -435 0
-507 506 0
507 435 -506 0
-508 -434 0
-508 507 0
508 434 -507 0
-509 -419 0
-509 508 0
509 419 -508 0
-510 -112 0
-510 -509 0
510 112 509 0
-511 112 0
-511 509 0
511 -112 -509 0
-512 -510 0
-512 -511 0
512 510 511 0
-513 418 0
-513 512 0
513 -418 -512 0
-514 415 0
-514 513 0
514 -415 -513 0
-515 408 0
-515 514 0
515 -408 -514 0
-516 -117 0
-516 27 0
516 117 -27 0
-517 117 0
-517 -27 0
517 -117 27 0
-518 -516 0
-518 -517 0
518 516 517 0
-519 -113 0
-519 16 0
519 113 -16 0
-520 113 0
-520 -16 0
520 -113 16 0
-521 -519 0
-521 -520 0
521 519 520 0
-522 -329 0
-522 -352 0
522 329 352 0
-523 -114 0
-523 522 0
523 114 -522 0
-524 114 0
-524 -522 0
524 -114 522 0
-525 -523 0
-525 -524 0
525 523 524 0
-526 521 0
-526 525 0
526 -521 -525 0
-527 -115 0
-527 9 0
527 115 -9 0
-528 115 0
-528 -9 0
528 -115 9 0
-529 -527 0
-529 -528 0
529 527 528 0
-530 -116 0
-530 14 0
530 116 -14 0
-531 116 0
-531 -14 0
531 -116 14 0
-532 -530 0
-532 -531 0
532 530 531 0
-533 529 0
-533 532 0
533 -529 -532 0
-534 526 0
-534 533 0
534 -526 -533 0
-535 518 0
-535 534 0
535 -518 -534 0
-536 515 0
-536 535 0
536 -515 -535 0
-537 -348 0
-537 -352 0
537 348 352 0
-538 -74 0
-538 537 0
538 74 -537 0
-539 74 0
-539 -537 0
539 -74 537 0
-540 -538 0
-540 -539 0
540 538 539 0
-541 73 0
-541 540 0
541 -73 -540 0
-542 30 0
-542 28 0
542 -30 -28 0
-543 -439 0
-543 -444 0
543 439 444 0
-544 -542 0
-544 -543 0
544 542 543 0
-545 -41 0
-545 444 0
545 41 -444 0
-546 -439 0
-546 545 0
546 439 -545 0
-547 41 0
-547 28 0
547 -41 -28 0
-548 -70 0
-548 439 0
548 70 -439 0
-549 547 0
-549 548 0
549 -547 -548 0
-550 -546 0
-550 -549 0
550 546 549 0
-551 -544 0
-551 550 0
551 544 -550 0
-552 -75 0
-552 551 0
552 75 -551 0
-553 75 0
-553 -551 0
553 -75 551 0
-554 -552 0
-554 -553 0
554 552 553 0
-555 -76 0
-555 11 0
555 76 -11 0
-556 76 0
-556 -11 0
556 -76 11 0
-557 -555 0
-557 -556 0
557 555 556 0
-558 554 0
-558 557 0
558 -554 -557 0
-559 541 0
-559 558 0
559 -541 -558 0
-560 -77 0
-560 25 0
560 77 -25 0
-561 77 0
-561 -25 0
561 -77 25 0
-562 -560 0
-562 -561 0
562 560 561 0
-563 -304 0
-563 -351 0
563 304 351 0
-564 -78 0
-564 563 0
564 78 -563 0
-565 78 0
-565 -563 0
565 -78 563 0
-566 -564 0
-566 -565 0
566 564 565 0
-567 562 0
-567 566 0
567 -562 -566 0
-568 -383 0
-568 371 0
568 383 -371 0
-569 -382 0
-569 568 0
569 382 -568 0
-570 -79 0
-570 569 0
570 79 -569 0
-571 79 0
-571 -569 0
571 -79 569 0
-572 -570 0
-572 -571 0
572 570 571 0
-573 -80 0
-573 3 0
573 80 -3 0
-574 80 0
-574 -3 0
574 -80 3 0
-575 -573 0
-575 -574 0
575 573 574 0
-576 572 0
-576 575 0
576 -572 -575 0
-577 567 0
-577 576 0
577 -567 -576 0
-578 559 0
-578 577 0
578 -559 -577 0
-579 -339 0
-579 -352 0
579 339 352 0
-580 -81 0
-580 579 0
580 81 -579 0
-581 81 0
-581 -579 0
581 -81 579 0
-582 -580 0
-582 -581 0
582 580 581 0
-583 -82 0
-583 13 0
583 82 -13 0
-584 82 0
-584 -13 0
584 -82 13 0
-585 -583 0
-585 -584 0
585 583 584 0
-586 582 0
-586 585 0
586 -582 -585 0
-587 -324 0
-587 -352 0
587 324 352 0
-588 -83 0
-588 587 0
588 83 -587 0
-589 83 0
-589 -587 0
589 -83 587 0
-590 -588 0
-590 -589 0
590 588 589 0
-591 -84 0
-591 4 0
591 84 -4 0
-592 84 0
-592 -4 0
592 -84 4 0
-593 -591 0
-593 -592 0
593 591 592 0
-594 590 0
-594 593 0
594 -590 -593 0
-595 586 0
-595 594 0
595 -586 -594 0
-596 -85 0
-596 26 0
596 85 -26 0
-597 85 0
-597 -26 0
597 -85 26 0
-598 -596 0
-598 -597 0
598 596 597 0
-599 547 0
-599 -548 0
599 -547 548 0
-600 -546 0
-600 -599 0
600 546 599 0
-601 -86 0
-601 -600 0
601 86 600 0
-602 86 0
-602 600 0
602 -86 -600 0
-603 -601 0
-603 -602 0
603 601 602 0
-604 598 0
-604 603 0
604 -598 -603 0
-605 -314 0
-605 -352 0
605 314 352 0
-606 -87 0
-606 605 0
606 87 -605 0
-607 87 0
-607 -605 0
607 -87 605 0
-608 -606 0
-608 -607 0
608 606 607 0
-609 -88 0
-609 5 0
609 88 -5 0
-610 88 0
-610 -5 0
610 -88 5 0
-611 -609 0
-611 -610 0
611 609 610 0
-612 608 0
-612 611 0
612 -608 -611 0
-613 604 0
-613 612 0
613 -604 -612 0
-614 595 0
-614 613 0
614 -595 -613 0
-615 578 0
-615 614 0
615 -578 -614 0
-616 -89 0
-616 24 0
616 89 -24 0
-617 89 0
-617 -24 0
617 -89 24 0
-618 -616 0
-618 -617 0
618 616 617 0
-619 -90 0
-619 15 0
619 90 -15 0
-620 90 0
-620 -15 0
620 -90 15 0
-621 -619 0
-621 -620 0
621 619 620 0
-622 618 0
-622 621 0
622 -618 -621 0
-623 -91 0
-623 6 0
623 91 -6 0
-624 91 0
-624 -6 0
624 -91 6 0
-625 -623 0
-625 -624 0
625 623 624 0
-626 -92 0
-626 23 0
626 92 -23 0
-627 92 0
-627 -23 0
627 -92 23 0
-628 -626 0
-628 -627 0
628 626 627 0
-629 625 0
-629 628 0
629 -625 -628 0
-630 622 0
-630 629 0
630 -622 -629 0
-631 -334 0
-631 -352 0
631 334 352 0
-632 -93 0
-632 631 0
632 93 -631 0
-633 93 0
-633 -631 0
633 -93 631 0
-634 -632 0
-634 -633 0
634 632 633 0
-635 -94 0
-635 17 0
635 94 -17 0
-636 94 0
-636 -17 0
636 -94 17 0
-637 -635 0
-637 -636 0
637 635 636 0
-638 634 0
-638 637 0
638 -634 -637 0
-639 -95 0
-639 2 0
639 95 -2 0
-640 95 0
-640 -2 0
640 -95 2 0
-641 -639 0
-641 -640 0
641 639 640 0
-642 -96 0
-642 7 0
642 96 -7 0
-643 96 0
-643 -7 0
643 -96 7 0
-644 -642 0
-644 -643 0
644 642 643 0
-645 641 0
-645 644 0
645 -641 -644 0
-646 638 0
-646 645 0
646 -638 -645 0
-647 630 0
-647 646 0
647 -630 -646 0
-648 -377 0
-648 568 0
648 377 -568 0
-649 -97 0
-649 648 0
649 97 -648 0
-650 97 0
-650 -648 0
650 -97 648 0
-651 -649 0
-651 -650 0
651 649 650 0
-652 -98 0
-652 21 0
652 98 -21 0
-653 98 0
-653 -21 0
653 -98 21 0
-654 -652 0
-654 -653 0
654 652 653 0
-655 651 0
-655 654 0
655 -651 -654 0
-656 -99 0
-656 22 0
656 99 -22 0
-657 99 0
-657 -22 0
657 -99 22 0
-658 -656 0
-658 -657 0
658 656 657 0
-659 -100 0
-659 19 0
659 100 -19 0
-660 100 0
-660 -19 0
660 -100 19 0
-661 -659 0
-661 -660 0
661 659 660 0
-662 658 0
-662 661 0
662 -658 -661 0
-663 655 0
-663 662 0
663 -655 -662 0
-664 -101 0
-664 8 0
664 101 -8 0
-665 101 0
-665 -8 0
665 -101 8 0
-666 -664 0
-666 -665 0
666 664 665 0
-667 -102 0
-667 20 0
667 102 -20 0
-668 102 0
-668 -20 0
668 -102 20 0
-669 -667 0
-669 -668 0
669 667 668 0
-670 666 0
-670 669 0
670 -666 -669 0
-671 -420 0
-671 -303 0
671 420 303 0
-672 -429 0
-672 -671 0
672 429 671 0
-673 -103 0
-673 672 0
673 103 -672 0
-674 103 0
-674 -672 0
674 -103 672 0
-675 -673 0
-675 -674 0
675 673 674 0
-676 -319 0
-676 -352 0
676 319 352 0
-677 -104 0
-677 676 0
677 104 -676 0
-678 104 0
-678 -676 0
678 -104 676 0
-679 -677 0
-679 -678 0
679 677 678 0
-680 675 0
-680 679 0
680 -675 -679 0
-681 670 0
-681 680 0
681 -670 -680 0
-682 663 0
-682 681 0
682 -663 -681 0
-683 647 0
-683 682 0
683 -647 -682 0
-684 615 0
-684 683 0
684 -615 -683 0
-685 536 0
-685 684 0
685 -536 -684 0
-686 685 0
-686 300 0
686 -685 -300 0
-687 61 0
-687 372 0
687 -61 -372 0
-688 -13 0
-688 1 0
688 13 -1 0
-689 22 0
-689 -1 0
689 -22 1 0
-690 2 0
-690 689 0
690 -2 -689 0
-691 -438 0
-691 -443 0
691 438 443 0
-692 -1 0
-692 -691 0
692 1 691 0
-693 -17 0
-693 -15 0
693 17 15 0
-694 -19 0
-694 693 0
694 19 -693 0
-695 2 0
-695 694 0
695 -2 -694 0
-696 3 0
-696 -481 0
696 -3 481 0
-697 -695 0
-697 696 0
697 695 -696 0
-698 41 0
-698 542 0
698 -41 -542 0
-699 -698 0
-699 -439 0
699 698 439 0
-700 -699 0
-700 444 0
700 699 -444 0
-701 11 0
-701 437 0
701 -11 -437 0
-702 -11 0
-702 -442 0
702 11 442 0
-703 9 0
-703 -702 0
703 -9 702 0
-704 -72 0
-704 444 0
704 72 -444 0
-705 -9 0
-705 704 0
705 9 -704 0
-706 40 0
-706 447 0
706 -40 -447 0
-707 -12 0
-707 706 0
707 12 -706 0
-708 12 0
-708 -447 0
708 -12 447 0
-709 -449 0
-709 708 0
709 449 -708 0
-710 26 0
-710 -449 0
710 -26 449 0
-711 -10 0
-711 -710 0
711 10 710 0
-712 12 0
-712 -711 0
712 -12 711 0
-713 44 0
-713 452 0
713 -44 -452 0
-714 -10 0
-714 713 0
714 10 -713 0
-715 10 0
-715 -452 0
715 -10 452 0
-716 -454 0
-716 715 0
716 454 -715 0
-717 -12 0
-717 -10 0
717 12 10 0
-718 8 0
-718 -717 0
718 -8 717 0
-719 47 0
-719 457 0
719 -47 -457 0
-720 -8 0
-720 719 0
720 8 -719 0
-721 8 0
-721 -457 0
721 -8 457 0
-722 -459 0
-722 721 0
722 459 -721 0
-723 -8 0
-723 717 0
723 8 -717 0
-724 7 0
-724 -723 0
724 -7 723 0
-725 53 0
-725 462 0
725 -53 -462 0
-726 -7 0
-726 725 0
726 7 -725 0
-727 7 0
-727 -462 0
727 -7 462 0
-728 -464 0
-728 727 0
728 464 -727 0
-729 -7 0
-729 723 0
729 7 -723 0
-730 6 0
-730 -729 0
730 -6 729 0
-731 57 0
-731 467 0
731 -57 -467 0
-732 -6 0
-732 731 0
732 6 -731 0
-733 6 0
-733 -467 0
733 -6 467 0
-734 -489 0
-734 733 0
734 489 -733 0
-735 -7 0
-735 -6 0
735 7 6 0
-736 -8 0
-736 735 0
736 8 -735 0
-737 717 0
-737 736 0
737 -717 -736 0
-738 5 0
-738 -737 0
738 -5 737 0
-739 4 0
-739 -717 0
739 -4 717 0
-740 -483 0
-740 482 0
740 483 -482 0
-741 3 0
-741 483 0
741 -3 -483 0
-742 -740 0
-742 -741 0
742 740 741 0
-743 -10 0
-743 -742 0
743 10 742 0
-744 39 0
-744 477 0
744 -39 -477 0
-745 -4 0
-745 -744 0
745 4 744 0
-746 743 0
-746 745 0
746 -743 -745 0
-747 -477 0
-747 -476 0
747 477 476 0
-748 35 0
-748 483 0
748 -35 -483 0
-749 -3 0
-749 -748 0
749 3 748 0
-750 -747 0
-750 749 0
750 747 -749 0
-751 4 0
-751 750 0
751 -4 -750 0
-752 -746 0
-752 -751 0
752 746 751 0
-753 -5 0
-753 -752 0
753 5 752 0
-754 736 0
-754 753 0
754 -736 -753 0
-755 745 0
-755 749 0
755 -745 -749 0
-756 -471 0
-756 -470 0
756 471 470 0
-757 5 0
-757 756 0
757 -5 -756 0
-758 755 0
-758 -757 0
758 -755 757 0
-759 -754 0
-759 -758 0
759 754 758 0
-760 12 0
-760 3 0
760 -12 -3 0
-761 -759 0
-761 -760 0
761 759 760 0
-762 -739 0
-762 761 0
762 739 -761 0
-763 43 0
-763 471 0
763 -43 -471 0
-764 -5 0
-764 763 0
764 5 -763 0
-765 762 0
-765 -764 0
765 -762 764 0
-766 -738 0
-766 765 0
766 738 -765 0
-767 20 0
-767 -489 0
767 -20 489 0
-768 6 0
-768 767 0
768 -6 -767 0
-769 766 0
-769 -768 0
769 -766 768 0
-770 -734 0
-770 769 0
770 734 -769 0
-771 -732 0
-771 770 0
771 732 -770 0
-772 -730 0
-772 771 0
772 730 -771 0
-773 21 0
-773 -464 0
773 -21 464 0
-774 7 0
-774 773 0
774 -7 -773 0
-775 772 0
-775 -774 0
775 -772 774 0
-776 -728 0
-776 775 0
776 728 -775 0
-777 -726 0
-777 776 0
777 726 -776 0
-778 -724 0
-778 777 0
778 724 -777 0
-779 23 0
-779 -459 0
779 -23 459 0
-780 8 0
-780 779 0
780 -8 -779 0
-781 778 0
-781 -780 0
781 -778 780 0
-782 -722 0
-782 781 0
782 722 -781 0
-783 -720 0
-783 782 0
783 720 -782 0
-784 -718 0
-784 783 0
784 718 -783 0
-785 24 0
-785 -454 0
785 -24 454 0
-786 10 0
-786 785 0
786 -10 -785 0
-787 784 0
-787 -786 0
787 -784 786 0
-788 -716 0
-788 787 0
788 716 -787 0
-789 -714 0
-789 788 0
789 714 -788 0
-790 -712 0
-790 789 0
790 712 -789 0
-791 -709 0
-791 790 0
791 709 -790 0
-792 -707 0
-792 791 0
792 707 -791 0
-793 -705 0
-793 792 0
793 705 -792 0
-794 -703 0
-794 793 0
794 703 -793 0
-795 -32 0
-795 439 0
795 32 -439 0
-796 -11 0
-796 795 0
796 11 -795 0
-797 794 0
-797 -796 0
797 -794 796 0
-798 -701 0
-798 797 0
798 701 -797 0
-799 -700 0
-799 798 0
799 700 -798 0
-800 -41 0
-800 542 0
800 41 -542 0
-801 439 0
-801 800 0
801 -439 -800 0
-802 799 0
-802 -801 0
802 -799 801 0
-803 -697 0
-803 802 0
803 697 -802 0
-804 -17 0
-804 15 0
804 17 -15 0
-805 -19 0
-805 804 0
805 19 -804 0
-806 4 0
-806 -475 0
806 -4 475 0
-807 805 0
-807 -806 0
807 -805 806 0
-808 803 0
-808 -807 0
808 -803 807 0
-809 2 0
-809 805 0
809 -2 -805 0
-810 806 0
-810 -809 0
810 -806 809 0
-811 808 0
-811 -810 0
811 -808 810 0
-812 17 0
-812 -15 0
812 -17 15 0
-813 -19 0
-813 812 0
813 19 -812 0
-814 5 0
-814 -469 0
814 -5 469 0
-815 813 0
-815 -814 0
815 -813 814 0
-816 811 0
-816 -815 0
816 -811 815 0
-817 2 0
-817 813 0
817 -2 -813 0
-818 814 0
-818 -817 0
818 -814 817 0
-819 816 0
-819 -818 0
819 -816 818 0
-820 17 0
-820 15 0
820 -17 -15 0
-821 -19 0
-821 820 0
821 19 -820 0
-822 -733 0
-822 821 0
822 733 -821 0
-823 819 0
-823 -822 0
823 -819 822 0
-824 2 0
-824 821 0
824 -2 -821 0
-825 733 0
-825 -824 0
825 -733 824 0
-826 823 0
-826 -825 0
826 -823 825 0
-827 19 0
-827 693 0
827 -19 -693 0
-828 -727 0
-828 827 0
828 727 -827 0
-829 826 0
-829 -828 0
829 -826 828 0
-830 2 0
-830 827 0
830 -2 -827 0
-831 727 0
-831 -830 0
831 -727 830 0
-832 829 0
-832 -831 0
832 -829 831 0
-833 19 0
-833 804 0
833 -19 -804 0
-834 -721 0
-834 833 0
834 721 -833 0
-835 832 0
-835 -834 0
835 -832 834 0
-836 2 0
-836 833 0
836 -2 -833 0
-837 721 0
-837 -836 0
837 -721 836 0
-838 835 0
-838 -837 0
838 -835 837 0
-839 19 0
-839 812 0
839 -19 -812 0
-840 -715 0
-840 839 0
840 715 -839 0
-841 838 0
-841 -840 0
841 -838 840 0
-842 2 0
-842 839 0
842 -2 -839 0
-843 715 0
-843 -842 0
843 -715 842 0
-844 841 0
-844 -843 0
844 -841 843 0
-845 19 0
-845 820 0
845 -19 -820 0
-846 -708 0
-846 845 0
846 708 -845 0
-847 844 0
-847 -846 0
847 -844 846 0
-848 2 0
-848 845 0
848 -2 -845 0
-849 708 0
-849 -848 0
849 -708 848 0
-850 847 0
-850 -849 0
850 -847 849 0
-851 -696 0
-851 -806 0
851 696 806 0
-852 -814 0
-852 851 0
852 814 -851 0
-853 -733 0
-853 852 0
853 733 -852 0
-854 -727 0
-854 853 0
854 727 -853 0
-855 -721 0
-855 854 0
855 721 -854 0
-856 -715 0
-856 855 0
856 715 -855 0
-857 -708 0
-857 856 0
857 708 -856 0
-858 2 0
-858 857 0
858 -2 -857 0
-859 850 0
-859 -858 0
859 -850 858 0
-860 -692 0
-860 859 0
860 692 -859 0
-861 1 0
-861 691 0
861 -1 -691 0
-862 860 0
-862 -861 0
862 -860 861 0
-863 -690 0
-863 862 0
863 690 -862 0
-864 -688 0
-864 863 0
864 688 -863 0
-865 -687 0
-865 864 0
865 687 -864 0
-866 -865 0
-866 509 0
866 865 -509 0
-867 118 0
-867 866 0
867 -118 -866 0
-868 -61 0
-868 -60 0
868 61 60 0
-869 -63 0
-869 -62 0
869 63 62 0
-870 868 0
-870 869 0
870 -868 -869 0
-871 -65 0
-871 -64 0
871 65 64 0
-872 -67 0
-872 -66 0
872 67 66 0
-873 871 0
-873 872 0
873 -871 -872 0
-874 870 0
-874 873 0
874 -870 -873 0
-875 -69 0
-875 -68 0
875 69 68 0
-876 -71 0
-876 -70 0
876 71 70 0
-877 875 0
-877 876 0
877 -875 -876 0
-878 -72 0
-878 877 0
878 72 -877 0
-879 874 0
-879 878 0
879 -874 -878 0
-880 -29 0
-880 -28 0
880 29 28 0
-881 -31 0
-881 -30 0
881 31 30 0
-882 880 0
-882 881 0
882 -880 -881 0
-883 -33 0
-883 -32 0
883 33 32 0
-884 -35 0
-884 -34 0
884 35 34 0
-885 883 0
-885 884 0
885 -883 -884 0
-886 882 0
-886 885 0
886 -882 -885 0
-887 -37 0
-887 -36 0
887 37 36 0
-888 -39 0
-888 -38 0
888 39 38 0
-889 887 0
-889 888 0
889 -887 -888 0
-890 -41 0
-890 -40 0
890 41 40 0
-891 -43 0
-891 -42 0
891 43 42 0
-892 890 0
-892 891 0
892 -890 -891 0
-893 889 0
-893 892 0
893 -889 -892 0
-894 886 0
-894 893 0
894 -886 -893 0
-895 -45 0
-895 -44 0
895 45 44 0
-896 -47 0
-896 -46 0
896 47 46 0
-897 895 0
-897 896 0
897 -895 -896 0
-898 -49 0
-898 -48 0
898 49 48 0
-899 -51 0
-899 -50 0
899 51 50 0
-900 898 0
-900 899 0
900 -898 -899 0
-901 897 0
-901 900 0
901 -897 -900 0
-902 -53 0
-902 -52 0
902 53 52 0
-903 -55 0
-903 -54 0
903 55 54 0
-904 902 0
-904 903 0
904 -902 -903 0
-905 -57 0
-905 -56 0
905 57 56 0
-906 -59 0
-906 -58 0
906 59 58 0
-907 905 0
-907 906 0
907 -905 -906 0
-908 904 0
-908 907 0
908 -904 -907 0
-909 901 0
-909 908 0
909 -901 -908 0
-910 894 0
-910 909 0
910 -894 -909 0
-911 879 0
-911 910 0
911 -879 -910 0
-912 -118 0
-912 911 0
912 118 -911 0
-913 -867 0
-913 -912 0
913 867 912 0
-914 -686 0
-914 913 0
914 686 -913 0
-915 -302 0
-915 914 0
915 302 -914 0
915 0
